sat
(
(define-fun sym205 () String "Y")
(define-fun sym547 () String "P")
(define-fun sym813 () String "K")
(define-fun sym3609 () String "P")
(define-fun sym1904 () String "P")
(define-fun sym2768 () String "K")
(define-fun sym4659 () String "K")
(define-fun sym1689 () String "H")
(define-fun sym4965 () String "A")
(define-fun sym3402 () String "K")
(define-fun sym3821 () String "K")
(define-fun sym4866 () String "P")
(define-fun sym2335 () String "H")
(define-fun sym4447 () String "P")
(define-fun sym1258 () String "P")
(define-fun sym1035 () String "H")
(define-fun sym4028 () String "P")
(define-fun sym1476 () String "K")
(define-fun sym2122 () String "K")
(define-fun sym2981 () String "H")
(define-fun sym2550 () String "P")
(define-fun sym3197 () String "P")
(define-fun sym161 () String "A")
(define-fun sym4240 () String "K")
)
